50
750
587
567
564
560
559
557
557
535
512
511
503
501
493
477
473
471
467
466
441
424
405
403
400
390
389
373
370
368
357
349
336
330
300
297
268
264
250
186
161
156
154
141
130
128
125
105
104
94
93
87
